&DOS
    outdir = './tmp/li_bcc'
    prefix = 'li_bcc'
    fildos = 'li_bcc.dos'
/
