&CONTROL
  calculation   = 'vc-relax'
  prefix        = 'li_bcc'
  pseudo_dir    = './pseudo'
  outdir        = './tmp/li_bcc'
  tprnfor       = .true.
  tstress       = .true.
  forc_conv_thr = 1.0d-4
/
&SYSTEM
  ibrav       = 3                ! bcc
  celldm(1)   = 6.60             ! ~3.49 Å (ざっくりスタート値)
  nat         = 1
  ntyp        = 1
  ecutwfc     = 50.0
  ecutrho     = 400.0
  occupations = 'smearing'
  smearing    = 'mp'
  degauss     = 0.02
/
&ELECTRONS
  conv_thr    = 1.0d-8
  mixing_beta = 0.7
/
&IONS
/
&CELL
  cell_dofree = 'all'
/
ATOMIC_SPECIES
  Li  6.941  Li.pbe-s-van_ak.UPF

ATOMIC_POSITIONS crystal
  Li  0.0  0.0  0.0

K_POINTS automatic
  16 16 16  0 0 0
