&CONTROL
  calculation = 'scf',
  outdir = './tmp/llzo_bulk',
  prefix = 'llzo_bulk',
  pseudo_dir = './pseudo',
/
&SYSTEM
  degauss = 0.02,
  ecutrho = 400.0,
  ecutwfc = 50.0,
  occupations = 'smearing',
  smearing = 'mp',
  ibrav = 0,
  nat = 96,
  ntyp = 4,
/
&ELECTRONS
  conv_thr = 1d-08,
  mixing_beta = 0.7,
/
&IONS
/
&CELL
/
ATOMIC_SPECIES
  La  138.9055 La.pbe-spfn-rrkjus_psl.1.0.0.UPF
  Li  6.9410 Li.pbe-s-van_ak.UPF
  O  15.9994 O.pbe-rrkjus.UPF
  Zr  91.2240 Zr.pbe-spn-rrkjus_psl.1.0.0.UPF
ATOMIC_POSITIONS crystal
  Li 0.500000 0.500000 0.000000
  Li 0.000000 0.000000 0.000000
  Li 0.250000 0.750000 0.500000
  Li 0.750000 0.250000 0.500000
  Li 0.931211 0.931211 0.362422
  Li 0.068789 0.431211 0.000000
  Li 0.681211 0.181211 0.862422
  Li 0.818789 0.681211 0.500000
  Li 0.318789 0.818789 0.137578
  Li 0.181211 0.318789 0.500000
  Li 0.568789 0.568789 0.637578
  Li 0.431211 0.068789 0.000000
  Li 0.906678 0.149659 0.918050
  Li 0.731609 0.649659 0.242982
  Li 0.899659 0.156678 0.418050
  Li 0.238628 0.656678 0.257018
  Li 0.343322 0.600341 0.581950
  Li 0.518391 0.100341 0.257018
  Li 0.350341 0.593322 0.081950
  Li 0.011372 0.093322 0.242982
  Li 0.406678 0.488628 0.757018
  Li 0.231609 0.988628 0.081950
  Li 0.399659 0.981609 0.742982
  Li 0.738628 0.481609 0.581950
  Li 0.843322 0.261372 0.742982
  Li 0.018391 0.761372 0.418050
  Li 0.850341 0.768391 0.757018
  Li 0.511372 0.268391 0.918050
  La 0.750000 0.750000 0.000000
  La 0.250000 0.250000 0.000000
  La 0.500000 0.000000 0.500000
  La 0.000000 0.500000 0.500000
  La 0.375000 0.752370 0.877370
  La 0.375000 0.252370 0.377370
  La 0.502370 0.625000 0.377370
  La 0.747630 0.125000 0.122630
  La 0.875000 0.997630 0.622630
  La 0.875000 0.497630 0.122630
  La 0.002370 0.625000 0.877370
  La 0.247630 0.125000 0.622630
  Zr 0.625000 0.875000 0.750000
  Zr 0.625000 0.375000 0.250000
  Zr 0.625000 0.875000 0.250000
  Zr 0.125000 0.375000 0.250000
  Zr 0.125000 0.375000 0.750000
  Zr 0.125000 0.875000 0.250000
  Zr 0.125000 0.875000 0.750000
  Zr 0.625000 0.375000 0.750000
  O 0.526779 0.686680 0.770867
  O 0.415813 0.186680 0.159901
  O 0.436680 0.776779 0.270867
  O 0.005912 0.276779 0.340099
  O 0.723221 0.063320 0.729133
  O 0.834187 0.563320 0.340099
  O 0.813320 0.973221 0.229133
  O 0.244088 0.473221 0.159901
  O 0.026779 0.255912 0.840099
  O 0.915813 0.755912 0.229133
  O 0.936680 0.665813 0.659901
  O 0.505912 0.165813 0.729133
  O 0.223221 0.494088 0.659901
  O 0.334187 0.994088 0.270867
  O 0.313320 0.084187 0.840099
  O 0.744088 0.584187 0.770867
  O 0.943110 0.395630 0.657406
  O 0.238224 0.895630 0.452520
  O 0.145630 0.193110 0.157406
  O 0.535704 0.693110 0.047480
  O 0.306890 0.354370 0.842594
  O 0.011776 0.854370 0.047480
  O 0.104370 0.556890 0.342594
  O 0.714296 0.056890 0.452520
  O 0.443110 0.785704 0.547480
  O 0.738224 0.285704 0.342594
  O 0.645630 0.488224 0.952520
  O 0.035704 0.988224 0.842594
  O 0.806890 0.964296 0.952520
  O 0.511776 0.464296 0.157406
  O 0.604370 0.261776 0.547480
  O 0.214296 0.761776 0.657406
  O 0.205537 0.579587 0.927596
  O 0.151991 0.079587 0.374050
  O 0.329587 0.455537 0.427596
  O 0.527941 0.955537 0.125950
  O 0.044463 0.170413 0.572404
  O 0.098009 0.670413 0.125950
  O 0.920413 0.294463 0.072404
  O 0.722059 0.794463 0.374050
  O 0.705537 0.777941 0.625950
  O 0.651991 0.277941 0.072404
  O 0.829587 0.401991 0.874050
  O 0.027941 0.901991 0.572404
  O 0.544463 0.972059 0.874050
  O 0.598009 0.472059 0.427596
  O 0.420413 0.348009 0.625950
  O 0.222059 0.848009 0.927596
K_POINTS automatic
  2 2 2 0 0 0
CELL_PARAMETERS angstrom
  10.733777 0.000000 -3.565970
  -5.587929 9.164552 -3.565970
  0.000000 0.000000 11.310619