&CONTROL
  calculation = 'scf',
  outdir = './tmp/llzo_relaxed',
  prefix = 'llzo_relaxed',
  pseudo_dir = './pseudo',
  verbosity = 'high',
/
&SYSTEM
  degauss = 0.02,
  ecutrho = 400.0,
  ecutwfc = 50.0,
  ibrav = 0,
  nat = 96,
  ntyp = 4,
  occupations = 'smearing',
  smearing = 'mp',
/
&ELECTRONS
  conv_thr = 1d-08,
  mixing_beta = 0.7,
/
&IONS
/
&CELL
/
ATOMIC_SPECIES
  La  138.9055 La.pbe-spfn-rrkjus_psl.1.0.0.UPF
  Li  6.9410 Li.pbe-s-van_ak.UPF
  O  15.9994 O.pbe-rrkjus.UPF
  Zr  91.2240 Zr.pbe-spn-rrkjus_psl.1.0.0.UPF
ATOMIC_POSITIONS crystal
  Li 0.500000 0.500000 1.000000
  Li 1.000000 1.000000 0.000000
  Li 0.250000 0.750000 0.500000
  Li 0.750000 0.250000 0.500000
  Li 0.929015 0.929014 0.358029
  Li 0.070985 0.429015 0.000000
  Li 0.679014 0.179015 0.858029
  Li 0.820985 0.679015 0.500000
  Li 0.320985 0.820986 0.141971
  Li 0.179015 0.320985 0.500000
  Li 0.570986 0.570985 0.641971
  Li 0.429015 0.070985 1.000000
  Li 0.905176 0.150484 0.917623
  Li 0.732862 0.650484 0.245308
  Li 0.900484 0.155176 0.417623
  Li 0.237554 0.655176 0.254692
  Li 0.344824 0.599516 0.582377
  Li 0.517138 0.099516 0.254692
  Li 0.349516 0.594824 0.082377
  Li 0.012446 0.094824 0.245308
  Li 0.405176 0.487554 0.754692
  Li 0.232862 0.987553 0.082378
  Li 0.400484 0.982862 0.745308
  Li 0.737553 0.482862 0.582378
  Li 0.844824 0.262446 0.745308
  Li 0.017138 0.762447 0.417622
  Li 0.849516 0.767138 0.754692
  Li 0.512447 0.267138 0.917622
  La 0.750000 0.750000 0.000000
  La 0.250000 0.250000 0.000000
  La 0.500000 0.000000 0.500000
  La 1.000000 0.500000 0.500000
  La 0.375000 0.752932 0.877932
  La 0.375000 0.252932 0.377932
  La 0.502932 0.625000 0.377932
  La 0.747068 0.125000 0.122068
  La 0.875000 0.997068 0.622068
  La 0.875000 0.497068 0.122068
  La 0.002932 0.625000 0.877932
  La 0.247068 0.125000 0.622068
  Zr 0.625000 0.875000 0.750000
  Zr 0.625000 0.375000 0.250000
  Zr 0.625000 0.875000 0.250000
  Zr 0.125000 0.375000 0.250000
  Zr 0.125000 0.375000 0.750000
  Zr 0.125000 0.875000 0.250000
  Zr 0.125000 0.875000 0.750000
  Zr 0.625000 0.375000 0.750000
  O 0.526543 0.686199 0.769954
  O 0.416246 0.186200 0.159657
  O 0.436199 0.776543 0.269954
  O 0.006589 0.276543 0.340343
  O 0.723457 0.063801 0.730046
  O 0.833754 0.563800 0.340343
  O 0.813801 0.973457 0.230046
  O 0.243411 0.473457 0.159657
  O 0.026543 0.256589 0.840343
  O 0.916246 0.756589 0.230046
  O 0.936200 0.666246 0.659657
  O 0.506589 0.166246 0.730046
  O 0.223457 0.493411 0.659657
  O 0.333754 0.993411 0.269954
  O 0.313800 0.083754 0.840343
  O 0.743411 0.583754 0.769954
  O 0.943305 0.394946 0.657487
  O 0.237459 0.894946 0.451641
  O 0.144946 0.193305 0.157487
  O 0.535818 0.693305 0.048359
  O 0.306695 0.355054 0.842513
  O 0.012541 0.855054 0.048359
  O 0.105054 0.556695 0.342513
  O 0.714182 0.056695 0.451641
  O 0.443305 0.785818 0.548359
  O 0.737459 0.285818 0.342513
  O 0.644946 0.487459 0.951641
  O 0.035818 0.987459 0.842513
  O 0.806695 0.964182 0.951641
  O 0.512541 0.464182 0.157487
  O 0.605054 0.262541 0.548359
  O 0.214182 0.762541 0.657487
  O 0.206015 0.578739 0.927755
  O 0.150984 0.078739 0.372724
  O 0.328738 0.456015 0.427755
  O 0.528260 0.956015 0.127276
  O 0.043985 0.171262 0.572245
  O 0.099016 0.671261 0.127276
  O 0.921261 0.293985 0.072245
  O 0.721740 0.793985 0.372724
  O 0.706015 0.778260 0.627276
  O 0.650984 0.278260 0.072245
  O 0.828739 0.400984 0.872724
  O 0.028260 0.900984 0.572245
  O 0.543985 0.971740 0.872724
  O 0.599016 0.471740 0.427755
  O 0.421261 0.349016 0.627276
  O 0.221740 0.849016 0.927755
K_POINTS automatic
  2 2 2 0 0 0
CELL_PARAMETERS angstrom
  10.656738 0.000000 -3.536975
  -5.551186 9.096725 -3.536975
  0.000000 0.000000 11.228369